StringID  Type  x       y       demand  ReadyTime   DueDate     ServiceTime   wp1 wp2 wp3 wp4 wp5 wp6 wp7 wp8 wp9 wp10 wp11 wp12 wp13 wp14 wp15 wp16 wp17 wp18 wp19 wp20 wp21
D0        d     40.0    50.0    0.0     0.0         1236.0      0.0	      6   7   8   9   10  11  12  13  14  15   16   17   18   19   20   21   22   23   24   1    2 
S1        f     73.0    52.0    0.0     0.0         1236.0      0.0 	      0.2 0.4 0.6 1   1   1   1   1   1   1    1    0.6  0.4  0.2  0    0    0    0    0    0    0
S2        f     90.0    55.0    0.0     0.0         1236.0      0.0 	      0   0.1 0.2 0.3 0.3 0.2 0.2 0.2 0.2 0.3  0.3  0.2  0.1  0.0  0    0    0    0    0    0    0
S3        f     55.0    79.0    0.0     0.0         1236.0      0.0   	      0.2 0.4 0.6 1   1   1   1   1   1   1    1    0.6  0.4  0.2  0    0    0    0    0    0    0
S4        f     69.0    89.0    0.0     0.0         1236.0      0.0           0   0.1 0.2 0.3 0.3 0.2 0.2 0.2 0.2 0.3  0.3  0.2  0.1  0.0  0    0    0    0    0    0    0
S5        f     32.0    80.0    0.0     0.0         1236.0      0.0	      0.2 0.4 0.6 1   1   1   1   1   1   1    1    0.6  0.4  0.2  0    0    0    0    0    0    0
S6        f     39.0    96.0    0.0     0.0         1236.0      0.0           0.2 0.4 0.6 1   1   1   1   1   1   1    1    0.6  0.4  0.2  0    0    0    0    0    0    0
S7        f     23.0    80.0    0.0     0.0         1236.0      0.0           0   0.1 0.2 0.3 0.3 0.2 0.2 0.2 0.2 0.3  0.3  0.2  0.1  0.0  0    0    0    0    0    0    0
S8        f     4.0     83.0    0.0     0.0         1236.0      0.0	      0.2 0.4 0.6 1   1   1   1   1   1   1    1    0.6  0.4  0.2  0    0    0    0    0    0    0
S9        f     18.0    58.0    0.0     0.0         1236.0      0.0           0.2 0.4 0.6 1   1   1   1   1   1   1    1    0.6  0.4  0.2  0    0    0    0    0    0    0
S10       f     1.0     56.0    0.0     0.0         1236.0      0.0	      0   0.1 0.2 0.3 0.3 0.2 0.2 0.2 0.2 0.3  0.3  0.2  0.1  0.0  0    0    0    0    0    0    0
S11       f     13.0    31.0    0.0     0.0         1236.0      0.0   	      0   0.1 0.2 0.3 0.3 0.2 0.2 0.2 0.2 0.3  0.3  0.2  0.1  0.0  0    0    0    0    0    0    0
S12       f     -5.0    38.0    0.0     0.0         1236.0      0.0           0.2 0.4 0.6 1   1   1   1   1   1   1    1    0.6  0.4  0.2  0    0    0    0    0    0    0
S13       f     26.0    37.0    0.0     0.0         1236.0      0.0           0.2 0.4 0.6 1   1   1   1   1   1   1    1    0.6  0.4  0.2  0    0    0    0    0    0    0
S14       f     28.0    13.0    0.0     0.0         1236.0      0.0           0.2 0.4 0.6 1   1   1   1   1   1   1    1    0.6  0.4  0.2  0    0    0    0    0    0    0
S15       f     39.0    31.0    0.0     0.0         1236.0      0.0           0   0.1 0.2 0.3 0.3 0.2 0.2 0.2 0.2 0.3  0.3  0.2  0.1  0.0  0    0    0    0    0    0    0
S16       f     48.0    11.0    0.0     0.0         1236.0      0.0           0   0.1 0.2 0.3 0.3 0.2 0.2 0.2 0.2 0.3  0.3  0.2  0.1  0.0  0    0    0    0    0    0    0
S17       f     59.0    17.0    0.0     0.0         1236.0      0.0 	      0.2 0.4 0.6 1   1   1   1   1   1   1    1    0.6  0.4  0.2  0    0    0    0    0    0    0
S18       f     73.0    23.0    0.0     0.0         1236.0      0.0           0.2 0.4 0.6 1   1   1   1   1   1   1    1    0.6  0.4  0.2  0    0    0    0    0    0    0
S19       f     74.0    32.0    0.0     0.0         1236.0      0.0           0.2 0.4 0.6 1   1   1   1   1   1   1    1    0.6  0.4  0.2  0    0    0    0    0    0    0
S20       f     90.0    44.0    0.0     0.0         1236.0      0.0           0.2 0.4 0.6 1   1   1   1   1   1   1    1    0.6  0.4  0.2  0    0    0    0    0    0    0
C12	  c	25.0	85.0	20.0	176.0	    228.0  	90.0
C13	  c	22.0	75.0	30.0	1042.0	    1106.0	90.0
C14	  c	22.0	85.0	10.0	263.0	    327.0	90.0
C15	  c	20.0	80.0	40.0	745.0	    789.0	90.0
C16	  c	20.0	85.0	40.0	358.0	    416.0	90.0
C17	  c	18.0	75.0	20.0	633.0	    711.0	90.0
C18	  c	15.0	75.0	20.0	557.0	    601.0	90.0
C19	  c	15.0	80.0	10.0	455.0	    513.0	90.0
C31	  c	10.0	35.0	20.0	467.0	    517.0	90.0
C32	  c	10.0	40.0	30.0	271.0	    337.0	90.0
C33	  c	8.0	40.0	40.0	355.0	    437.0	90.0
C35	  c	5.0	35.0	10.0	655.0	    725.0	90.0
C36	  c	5.0	45.0	10.0	278.0	    346.0	90.0
C37	  c	2.0	40.0	20.0	569.0	    619.0	90.0
C38	  c	0.0	40.0	30.0	472.0	    532.0	90.0
C39	  c	0.0	45.0	20.0	374.0	    440.0	90.0
C70	  c	95.0	30.0	30.0	390.0	    444.0	90.0
C71	  c	95.0	35.0	20.0	481.0	    543.0	90.0
C73	  c	92.0	30.0	10.0	287.0	    361.0	90.0
C76	  c	90.0	35.0	10.0	575.0	    639.0	90.0
C77	  c	88.0	30.0	10.0	534.0	    600.0	90.0
C78	  c	88.0	35.0	20.0	667.0	    731.0	90.0
C79	  c	87.0	30.0	10.0	446.0	    506.0	90.0
C80	  c	85.0	25.0	10.0	637.0	    689.0	90.0
C81	  c	85.0	35.0	30.0	761.0	    823.0	90.0

F Vehicle fuel tank capacity /12/
Q Vehicle load capacity /200.0/
r fuel consumption rate /0.155/
g inverse refueling rate /0.5/
v average Velocity /1.0/